c Sudoku solution
p cnf 729 0
216 0
225 0
232 0
258 0
271 0
323 0
344 0
351 0
369 0
496 0
531 0
572 0
624 0
635 0
526 0
647 0
243 0
267 0
673 0
691 0
768 0
822 0
921 0
111 0
134 0
129 0
428 0
548 0
688 0
727 0
933 0
966 0
146 0
656 0
662 0
412 0
619 0
513 0
437 0
317 0
338 0
165 0
152 0
564 0
977 0
857 0
178 0
985 0
836 0
739 0
776 0
375 0
392 0
386 0
595 0
587 0
559 0
954 0
918 0
898 0
782 0
881 0
999 0
793 0
874 0
741 0
863 0
942 0
755 0
849 0
714 0
815 0
445 0
461 0
453 0
479 0
484 0
183 0
197 0
289 0
294 0
